(declare-const havoc Int)
(declare-const |x':54| Int)
(declare-const |y':53| Int)
(declare-const |K:64| Int)
(declare-const |c':55| Int)
(assert (and (or (not (<= (- |K:64|) 0))
                   (= (+ (* 2 |x':54|) (- (* |K:64| |K:64|)) (- |K:64|)) 0))
               (or (not (and (<= (- |K:64|) 0) (<= |K:64| 0)))
                     (= (+ |y':53| (- |K:64|)) 0))
               (or (not (<= (+ (- |K:64|) 1) 0)) (= (+ |y':53| (- |K:64|)) 0))
               (or (not (and (<= (- |K:64|) 0) (<= |K:64| 0)))
                     (= (+ |c':55| (- |K:64|)) 0))
               (or (not (<= (+ (- |K:64|) 1) 0)) (= (+ |c':55| (- |K:64|)) 0))
               (or (and (= |K:64| 0) (= (- |c':55|) 0) (= (- |x':54|) 0)
                          (= (- |y':53|) 0))
                     (and (<= (+ (- |K:64|) 1) 0) (<= (+ (- havoc) 1) 0)
                            (= (+ (* 3 |c':55|) (* |y':53| |y':53|)
                                    (* -2 |y':53|) (* -2 |x':54|)) 0)
                            (= (+ (- |c':55|) |y':53|) 0)
                            (<= (+ (- havoc) |c':55|) 0)
                            (<= (+ (- |c':55|) 1) 0)
                            (<= (+ (* 3 |c':55|) (* -2 |x':54|) -1) 0)))
               (<= (- |K:64|) 0) (<= (- |c':55|) 0) (<= (- |x':54|) 0)
               (<= (- |y':53|) 0) (= (+ |c':55| (- |y':53|)) 0)
               (not (= (+ (* |y':53| |y':53|) |y':53| (* -2 |x':54|)) 0))))
(check-sat)
